p cnf 361 1
361 0
w 1 0.29206
w 2 1 0.791133
w 2 -1 0.880522
w 3 2 1
w 3 -2 0
w 4 3 0.672698
w 4 -3 0.75893
w 5 4 0.523456
w 5 -4 0.175572
w 6 5 0.563363
w 6 -5 0.700147
w 7 6 0.00595124
w 7 -6 0.356152
w 8 7 0.172527
w 8 -7 0.285167
w 9 8 0.866015
w 9 -8 0.355305
w 10 9 0.282016
w 10 -9 0.2641
w 11 10 0.632097
w 11 -10 0.643152
w 12 11 0.924157
w 12 -11 0.275227
w 13 12 0
w 13 -12 1
w 14 13 0.0310008
w 14 -13 0.375211
w 15 14 1
w 15 -14 0
w 16 15 0
w 16 -15 1
w 17 16 0.801024
w 17 -16 0.316734
w 18 17 0.301251
w 18 -17 0.322685
w 19 18 0
w 19 -18 1
w 20 1 1
w 20 -1 0
w 21 20 2 0.361227
w 21 20 -2 0.662274
w 21 -20 2 0.718331
w 21 -20 -2 0.643244
w 22 21 3 0.488638
w 22 21 -3 0.275341
w 22 -21 3 0.569526
w 22 -21 -3 0.185532
w 23 22 4 1
w 23 22 -4 0
w 23 -22 4 1
w 23 -22 -4 1
w 24 23 5 0.379389
w 24 23 -5 0.631887
w 24 -23 5 0.494491
w 24 -23 -5 0.606938
w 25 24 6 0
w 25 24 -6 0
w 25 -24 6 1
w 25 -24 -6 0
w 26 25 7 0.024678
w 26 25 -7 0.147445
w 26 -25 7 0.997414
w 26 -25 -7 0.519891
w 27 26 8 0
w 27 26 -8 0
w 27 -26 8 1
w 27 -26 -8 1
w 28 27 9 0.0430621
w 28 27 -9 0.170966
w 28 -27 9 0.799703
w 28 -27 -9 0.612588
w 29 28 10 0
w 29 28 -10 0
w 29 -28 10 1
w 29 -28 -10 1
w 30 29 11 0.734617
w 30 29 -11 0.382767
w 30 -29 11 0.4912
w 30 -29 -11 0.229107
w 31 30 12 0.876459
w 31 30 -12 0.689101
w 31 -30 12 0.397667
w 31 -30 -12 0.578452
w 32 31 13 0.10688
w 32 31 -13 0.60313
w 32 -31 13 0.96219
w 32 -31 -13 0.104294
w 33 32 14 0
w 33 32 -14 1
w 33 -32 14 1
w 33 -32 -14 1
w 34 33 15 0.528499
w 34 33 -15 0.576354
w 34 -33 15 0.921583
w 34 -33 -15 0.328202
w 35 34 16 0
w 35 34 -16 1
w 35 -34 16 1
w 35 -34 -16 0
w 36 35 17 0
w 36 35 -17 1
w 36 -35 17 0
w 36 -35 -17 1
w 37 36 18 0
w 37 36 -18 0
w 37 -36 18 1
w 37 -36 -18 0
w 38 37 19 0
w 38 37 -19 0
w 38 -37 19 0
w 38 -37 -19 1
w 39 20 1
w 39 -20 0
w 40 39 21 1
w 40 39 -21 1
w 40 -39 21 1
w 40 -39 -21 0
w 41 40 22 0.264149
w 41 40 -22 0.0525861
w 41 -40 22 0.0386978
w 41 -40 -22 0.453091
w 42 41 23 0
w 42 41 -23 1
w 42 -41 23 0
w 42 -41 -23 0
w 43 42 24 0.681561
w 43 42 -24 0.410431
w 43 -42 24 0.601772
w 43 -42 -24 0.953423
w 44 43 25 1
w 44 43 -25 0
w 44 -43 25 0
w 44 -43 -25 0
w 45 44 26 0
w 45 44 -26 1
w 45 -44 26 1
w 45 -44 -26 1
w 46 45 27 0.114884
w 46 45 -27 0.34143
w 46 -45 27 0.27029
w 46 -45 -27 0.245887
w 47 46 28 1
w 47 46 -28 0
w 47 -46 28 0
w 47 -46 -28 1
w 48 47 29 0.456725
w 48 47 -29 0.0869058
w 48 -47 29 0.267946
w 48 -47 -29 0.153607
w 49 48 30 0.949507
w 49 48 -30 0.564037
w 49 -48 30 0.293651
w 49 -48 -30 0.902929
w 50 49 31 0.76868
w 50 49 -31 0.817316
w 50 -49 31 0.892326
w 50 -49 -31 0.695418
w 51 50 32 0.314732
w 51 50 -32 0.676993
w 51 -50 32 0.935403
w 51 -50 -32 0.0492309
w 52 51 33 0.517899
w 52 51 -33 0.164115
w 52 -51 33 0.177858
w 52 -51 -33 0.788189
w 53 52 34 0
w 53 52 -34 0
w 53 -52 34 1
w 53 -52 -34 1
w 54 53 35 1
w 54 53 -35 0
w 54 -53 35 1
w 54 -53 -35 0
w 55 54 36 0.0889431
w 55 54 -36 0.555067
w 55 -54 36 0.494776
w 55 -54 -36 0.382594
w 56 55 37 0
w 56 55 -37 0
w 56 -55 37 1
w 56 -55 -37 1
w 57 56 38 0.782723
w 57 56 -38 0.379556
w 57 -56 38 0.523686
w 57 -56 -38 0.718126
w 58 39 0
w 58 -39 1
w 59 58 40 1
w 59 58 -40 0
w 59 -58 40 0
w 59 -58 -40 0
w 60 59 41 0.346842
w 60 59 -41 0.711378
w 60 -59 41 0.0881618
w 60 -59 -41 0.657
w 61 60 42 1
w 61 60 -42 0
w 61 -60 42 0
w 61 -60 -42 1
w 62 61 43 0
w 62 61 -43 0
w 62 -61 43 1
w 62 -61 -43 0
w 63 62 44 1
w 63 62 -44 0
w 63 -62 44 1
w 63 -62 -44 1
w 64 63 45 0.0472536
w 64 63 -45 0.443779
w 64 -63 45 0.336476
w 64 -63 -45 0.407367
w 65 64 46 0.929378
w 65 64 -46 0.945337
w 65 -64 46 0.704019
w 65 -64 -46 0.932281
w 66 65 47 0.0508605
w 66 65 -47 0.643659
w 66 -65 47 0.801253
w 66 -65 -47 0.70786
w 67 66 48 0.666547
w 67 66 -48 0.761924
w 67 -66 48 0.347206
w 67 -66 -48 0.46258
w 68 67 49 0.556827
w 68 67 -49 0.75339
w 68 -67 49 0.430532
w 68 -67 -49 0.224445
w 69 68 50 0
w 69 68 -50 0
w 69 -68 50 0
w 69 -68 -50 1
w 70 69 51 0.652519
w 70 69 -51 0.678229
w 70 -69 51 0.336808
w 70 -69 -51 0.988994
w 71 70 52 1
w 71 70 -52 1
w 71 -70 52 1
w 71 -70 -52 0
w 72 71 53 0.744023
w 72 71 -53 0.771492
w 72 -71 53 0.494313
w 72 -71 -53 0.545276
w 73 72 54 0
w 73 72 -54 0
w 73 -72 54 1
w 73 -72 -54 0
w 74 73 55 0.146207
w 74 73 -55 0.0909986
w 74 -73 55 0.427794
w 74 -73 -55 0.576738
w 75 74 56 1
w 75 74 -56 1
w 75 -74 56 1
w 75 -74 -56 0
w 76 75 57 0
w 76 75 -57 1
w 76 -75 57 1
w 76 -75 -57 1
w 77 58 1
w 77 -58 0
w 78 77 59 0.949207
w 78 77 -59 0.109877
w 78 -77 59 0.4499
w 78 -77 -59 0.79986
w 79 78 60 0.221392
w 79 78 -60 0.294173
w 79 -78 60 0.399177
w 79 -78 -60 0.700744
w 80 79 61 1
w 80 79 -61 1
w 80 -79 61 0
w 80 -79 -61 1
w 81 80 62 0
w 81 80 -62 0
w 81 -80 62 1
w 81 -80 -62 1
w 82 81 63 1
w 82 81 -63 0
w 82 -81 63 1
w 82 -81 -63 0
w 83 82 64 0
w 83 82 -64 1
w 83 -82 64 0
w 83 -82 -64 1
w 84 83 65 0.722346
w 84 83 -65 0.768895
w 84 -83 65 0.846401
w 84 -83 -65 0.172246
w 85 84 66 0.700302
w 85 84 -66 0.393638
w 85 -84 66 0.862928
w 85 -84 -66 0.0994783
w 86 85 67 0
w 86 85 -67 1
w 86 -85 67 0
w 86 -85 -67 0
w 87 86 68 0.124629
w 87 86 -68 0.465683
w 87 -86 68 0.70908
w 87 -86 -68 0.789593
w 88 87 69 0.0667695
w 88 87 -69 0.138703
w 88 -87 69 0.792006
w 88 -87 -69 0.813781
w 89 88 70 0.0724251
w 89 88 -70 0.602634
w 89 -88 70 0.460514
w 89 -88 -70 0.0655014
w 90 89 71 1
w 90 89 -71 0
w 90 -89 71 0
w 90 -89 -71 1
w 91 90 72 0.759973
w 91 90 -72 0.743741
w 91 -90 72 0.353731
w 91 -90 -72 0.622901
w 92 91 73 0.448113
w 92 91 -73 0.966967
w 92 -91 73 0.553698
w 92 -91 -73 0.484515
w 93 92 74 0
w 93 92 -74 1
w 93 -92 74 1
w 93 -92 -74 1
w 94 93 75 0
w 94 93 -75 0
w 94 -93 75 0
w 94 -93 -75 1
w 95 94 76 1
w 95 94 -76 1
w 95 -94 76 0
w 95 -94 -76 1
w 96 77 0.164168
w 96 -77 0.997926
w 97 96 78 0
w 97 96 -78 0
w 97 -96 78 0
w 97 -96 -78 1
w 98 97 79 0.711062
w 98 97 -79 0.73826
w 98 -97 79 0.628327
w 98 -97 -79 0.159175
w 99 98 80 0.182025
w 99 98 -80 0.64369
w 99 -98 80 0.0315691
w 99 -98 -80 0.731605
w 100 99 81 1
w 100 99 -81 0
w 100 -99 81 1
w 100 -99 -81 1
w 101 100 82 1
w 101 100 -82 0
w 101 -100 82 0
w 101 -100 -82 0
w 102 101 83 0.19675
w 102 101 -83 0.330274
w 102 -101 83 0.1278
w 102 -101 -83 0.360918
w 103 102 84 0
w 103 102 -84 1
w 103 -102 84 1
w 103 -102 -84 0
w 104 103 85 0.154672
w 104 103 -85 0.593432
w 104 -103 85 0.569921
w 104 -103 -85 0.782999
w 105 104 86 0.275147
w 105 104 -86 0.965024
w 105 -104 86 0.396297
w 105 -104 -86 0.306716
w 106 105 87 0.649131
w 106 105 -87 0.13031
w 106 -105 87 0.686893
w 106 -105 -87 0.300702
w 107 106 88 0.00258682
w 107 106 -88 0.489714
w 107 -106 88 0.607882
w 107 -106 -88 0.457492
w 108 107 89 1
w 108 107 -89 1
w 108 -107 89 1
w 108 -107 -89 0
w 109 108 90 0.779129
w 109 108 -90 0.731462
w 109 -108 90 0.0471379
w 109 -108 -90 0.661499
w 110 109 91 0.20181
w 110 109 -91 0.254931
w 110 -109 91 0.133044
w 110 -109 -91 0.984809
w 111 110 92 1
w 111 110 -92 0
w 111 -110 92 1
w 111 -110 -92 1
w 112 111 93 0.0529662
w 112 111 -93 0.845218
w 112 -111 93 0.333354
w 112 -111 -93 0.353669
w 113 112 94 0
w 113 112 -94 0
w 113 -112 94 1
w 113 -112 -94 0
w 114 113 95 1
w 114 113 -95 1
w 114 -113 95 0
w 114 -113 -95 1
w 115 96 0.245975
w 115 -96 0.194295
w 116 115 97 0.907474
w 116 115 -97 0.757418
w 116 -115 97 0.138375
w 116 -115 -97 0.162404
w 117 116 98 0.123184
w 117 116 -98 0.169942
w 117 -116 98 0.298653
w 117 -116 -98 0.0730169
w 118 117 99 0.0135603
w 118 117 -99 0.719478
w 118 -117 99 0.626743
w 118 -117 -99 0.858778
w 119 118 100 0
w 119 118 -100 1
w 119 -118 100 0
w 119 -118 -100 0
w 120 119 101 1
w 120 119 -101 0
w 120 -119 101 0
w 120 -119 -101 0
w 121 120 102 0.103425
w 121 120 -102 0.0927117
w 121 -120 102 0.787556
w 121 -120 -102 0.3494
w 122 121 103 0
w 122 121 -103 0
w 122 -121 103 1
w 122 -121 -103 1
w 123 122 104 1
w 123 122 -104 0
w 123 -122 104 0
w 123 -122 -104 0
w 124 123 105 1
w 124 123 -105 1
w 124 -123 105 0
w 124 -123 -105 0
w 125 124 106 0.770151
w 125 124 -106 0.443239
w 125 -124 106 0.219778
w 125 -124 -106 0.593944
w 126 125 107 0.401983
w 126 125 -107 0.28022
w 126 -125 107 0.503642
w 126 -125 -107 0.0318612
w 127 126 108 1
w 127 126 -108 1
w 127 -126 108 0
w 127 -126 -108 1
w 128 127 109 0.21334
w 128 127 -109 0.456005
w 128 -127 109 0.552523
w 128 -127 -109 0.632617
w 129 128 110 0
w 129 128 -110 1
w 129 -128 110 1
w 129 -128 -110 1
w 130 129 111 0
w 130 129 -111 0
w 130 -129 111 0
w 130 -129 -111 1
w 131 130 112 1
w 131 130 -112 0
w 131 -130 112 1
w 131 -130 -112 0
w 132 131 113 0
w 132 131 -113 1
w 132 -131 113 1
w 132 -131 -113 0
w 133 132 114 0.398424
w 133 132 -114 0.984277
w 133 -132 114 0.963141
w 133 -132 -114 0.354891
w 134 115 1
w 134 -115 0
w 135 134 116 0.851862
w 135 134 -116 0.20569
w 135 -134 116 0.200848
w 135 -134 -116 0.242755
w 136 135 117 0.422685
w 136 135 -117 0.867189
w 136 -135 117 0.340793
w 136 -135 -117 0.807517
w 137 136 118 0.715868
w 137 136 -118 0.982089
w 137 -136 118 0.716137
w 137 -136 -118 0.92195
w 138 137 119 0.13679
w 138 137 -119 0.34781
w 138 -137 119 0.465477
w 138 -137 -119 0.424505
w 139 138 120 1
w 139 138 -120 0
w 139 -138 120 1
w 139 -138 -120 0
w 140 139 121 0.0196331
w 140 139 -121 0.244739
w 140 -139 121 0.969178
w 140 -139 -121 0.41549
w 141 140 122 0.537408
w 141 140 -122 0.267352
w 141 -140 122 0.103597
w 141 -140 -122 0.738256
w 142 141 123 0.84749
w 142 141 -123 0.160941
w 142 -141 123 0.377296
w 142 -141 -123 0.188283
w 143 142 124 0.11602
w 143 142 -124 0.904152
w 143 -142 124 0.950547
w 143 -142 -124 0.832157
w 144 143 125 0.877358
w 144 143 -125 0.968946
w 144 -143 125 0.173911
w 144 -143 -125 0.342835
w 145 144 126 0
w 145 144 -126 1
w 145 -144 126 1
w 145 -144 -126 1
w 146 145 127 0.223601
w 146 145 -127 0.404552
w 146 -145 127 0.153536
w 146 -145 -127 0.192779
w 147 146 128 0.0514429
w 147 146 -128 0.730187
w 147 -146 128 0.0873944
w 147 -146 -128 0.15504
w 148 147 129 1
w 148 147 -129 1
w 148 -147 129 1
w 148 -147 -129 0
w 149 148 130 1
w 149 148 -130 0
w 149 -148 130 0
w 149 -148 -130 0
w 150 149 131 0.921066
w 150 149 -131 0.425747
w 150 -149 131 0.891921
w 150 -149 -131 0.094977
w 151 150 132 0.285372
w 151 150 -132 0.44454
w 151 -150 132 0.395781
w 151 -150 -132 0.894687
w 152 151 133 0.304579
w 152 151 -133 0.118288
w 152 -151 133 0.234012
w 152 -151 -133 0.458115
w 153 134 1
w 153 -134 0
w 154 153 135 0.0412538
w 154 153 -135 0.141449
w 154 -153 135 0.664597
w 154 -153 -135 0.509697
w 155 154 136 0.667127
w 155 154 -136 0.139082
w 155 -154 136 0.713749
w 155 -154 -136 0.85794
w 156 155 137 0.804566
w 156 155 -137 0.952905
w 156 -155 137 0.285314
w 156 -155 -137 0.727541
w 157 156 138 0.711062
w 157 156 -138 0.619462
w 157 -156 138 0.968948
w 157 -156 -138 0.479645
w 158 157 139 0.413488
w 158 157 -139 0.875426
w 158 -157 139 0.799521
w 158 -157 -139 0.242948
w 159 158 140 0
w 159 158 -140 0
w 159 -158 140 1
w 159 -158 -140 0
w 160 159 141 0
w 160 159 -141 1
w 160 -159 141 0
w 160 -159 -141 0
w 161 160 142 1
w 161 160 -142 1
w 161 -160 142 1
w 161 -160 -142 0
w 162 161 143 0.929728
w 162 161 -143 0.290247
w 162 -161 143 0.941147
w 162 -161 -143 0.657268
w 163 162 144 0
w 163 162 -144 0
w 163 -162 144 1
w 163 -162 -144 1
w 164 163 145 1
w 164 163 -145 0
w 164 -163 145 0
w 164 -163 -145 1
w 165 164 146 0
w 165 164 -146 0
w 165 -164 146 0
w 165 -164 -146 1
w 166 165 147 0.973082
w 166 165 -147 0.397896
w 166 -165 147 0.470037
w 166 -165 -147 0.785356
w 167 166 148 0
w 167 166 -148 0
w 167 -166 148 0
w 167 -166 -148 1
w 168 167 149 0.752462
w 168 167 -149 0.936339
w 168 -167 149 0.892347
w 168 -167 -149 0.69361
w 169 168 150 0.0565652
w 169 168 -150 0.345819
w 169 -168 150 0.870337
w 169 -168 -150 0.189731
w 170 169 151 0
w 170 169 -151 1
w 170 -169 151 0
w 170 -169 -151 0
w 171 170 152 0.672237
w 171 170 -152 0.931877
w 171 -170 152 0.792547
w 171 -170 -152 0.497641
w 172 153 1
w 172 -153 0
w 173 172 154 0
w 173 172 -154 0
w 173 -172 154 0
w 173 -172 -154 1
w 174 173 155 0.520837
w 174 173 -155 0.731891
w 174 -173 155 0.948219
w 174 -173 -155 0.122938
w 175 174 156 0
w 175 174 -156 1
w 175 -174 156 1
w 175 -174 -156 1
w 176 175 157 0.348502
w 176 175 -157 0.261581
w 176 -175 157 0.00145455
w 176 -175 -157 0.400402
w 177 176 158 0.486407
w 177 176 -158 0.433387
w 177 -176 158 0.523952
w 177 -176 -158 0.158644
w 178 177 159 0
w 178 177 -159 0
w 178 -177 159 0
w 178 -177 -159 1
w 179 178 160 1
w 179 178 -160 1
w 179 -178 160 1
w 179 -178 -160 0
w 180 179 161 0.903924
w 180 179 -161 0.249601
w 180 -179 161 0.856607
w 180 -179 -161 0.0268618
w 181 180 162 0.741165
w 181 180 -162 0.042147
w 181 -180 162 0.911917
w 181 -180 -162 0.219329
w 182 181 163 1
w 182 181 -163 1
w 182 -181 163 0
w 182 -181 -163 1
w 183 182 164 1
w 183 182 -164 0
w 183 -182 164 0
w 183 -182 -164 0
w 184 183 165 0.213997
w 184 183 -165 0.73849
w 184 -183 165 0.191792
w 184 -183 -165 0.120618
w 185 184 166 0.0742399
w 185 184 -166 0.0873972
w 185 -184 166 0.248584
w 185 -184 -166 0.59195
w 186 185 167 0.152508
w 186 185 -167 0.84155
w 186 -185 167 0.852391
w 186 -185 -167 0.17937
w 187 186 168 0.593556
w 187 186 -168 0.221517
w 187 -186 168 0.487422
w 187 -186 -168 0.812885
w 188 187 169 0
w 188 187 -169 0
w 188 -187 169 1
w 188 -187 -169 1
w 189 188 170 1
w 189 188 -170 0
w 189 -188 170 0
w 189 -188 -170 0
w 190 189 171 0.196133
w 190 189 -171 0.10453
w 190 -189 171 0.709244
w 190 -189 -171 0.316751
w 191 172 0.783484
w 191 -172 0.404148
w 192 191 173 0
w 192 191 -173 0
w 192 -191 173 1
w 192 -191 -173 0
w 193 192 174 1
w 193 192 -174 0
w 193 -192 174 1
w 193 -192 -174 1
w 194 193 175 0
w 194 193 -175 1
w 194 -193 175 1
w 194 -193 -175 0
w 195 194 176 0.563306
w 195 194 -176 0.38843
w 195 -194 176 0.903251
w 195 -194 -176 0.847141
w 196 195 177 1
w 196 195 -177 0
w 196 -195 177 0
w 196 -195 -177 0
w 197 196 178 0
w 197 196 -178 0
w 197 -196 178 1
w 197 -196 -178 1
w 198 197 179 0.524613
w 198 197 -179 0.202352
w 198 -197 179 0.877469
w 198 -197 -179 0.741597
w 199 198 180 1
w 199 198 -180 0
w 199 -198 180 1
w 199 -198 -180 0
w 200 199 181 0.95932
w 200 199 -181 0.307483
w 200 -199 181 0.0170269
w 200 -199 -181 0.998801
w 201 200 182 0
w 201 200 -182 1
w 201 -200 182 0
w 201 -200 -182 0
w 202 201 183 0.914734
w 202 201 -183 0.640655
w 202 -201 183 0.182682
w 202 -201 -183 0.996254
w 203 202 184 0.548378
w 203 202 -184 0.394525
w 203 -202 184 0.246105
w 203 -202 -184 0.697557
w 204 203 185 0
w 204 203 -185 0
w 204 -203 185 0
w 204 -203 -185 1
w 205 204 186 0.853971
w 205 204 -186 0.0578816
w 205 -204 186 0.497853
w 205 -204 -186 0.154526
w 206 205 187 0
w 206 205 -187 1
w 206 -205 187 1
w 206 -205 -187 1
w 207 206 188 0
w 207 206 -188 1
w 207 -206 188 0
w 207 -206 -188 0
w 208 207 189 0
w 208 207 -189 1
w 208 -207 189 0
w 208 -207 -189 1
w 209 208 190 0.935703
w 209 208 -190 0.757168
w 209 -208 190 0.0262855
w 209 -208 -190 0.181808
w 210 191 1
w 210 -191 0
w 211 210 192 0.676896
w 211 210 -192 0.622525
w 211 -210 192 0.564186
w 211 -210 -192 0.640663
w 212 211 193 0
w 212 211 -193 0
w 212 -211 193 0
w 212 -211 -193 1
w 213 212 194 0
w 213 212 -194 0
w 213 -212 194 0
w 213 -212 -194 1
w 214 213 195 0
w 214 213 -195 1
w 214 -213 195 1
w 214 -213 -195 1
w 215 214 196 0
w 215 214 -196 1
w 215 -214 196 0
w 215 -214 -196 1
w 216 215 197 1
w 216 215 -197 0
w 216 -215 197 1
w 216 -215 -197 0
w 217 216 198 0
w 217 216 -198 0
w 217 -216 198 1
w 217 -216 -198 0
w 218 217 199 1
w 218 217 -199 0
w 218 -217 199 1
w 218 -217 -199 1
w 219 218 200 0.849131
w 219 218 -200 0.565648
w 219 -218 200 0.489865
w 219 -218 -200 0.706645
w 220 219 201 0.178314
w 220 219 -201 0.0640386
w 220 -219 201 0.559754
w 220 -219 -201 0.203444
w 221 220 202 1
w 221 220 -202 0
w 221 -220 202 1
w 221 -220 -202 1
w 222 221 203 0
w 222 221 -203 0
w 222 -221 203 0
w 222 -221 -203 1
w 223 222 204 0.3183
w 223 222 -204 0.674562
w 223 -222 204 0.699363
w 223 -222 -204 0.936726
w 224 223 205 0.172604
w 224 223 -205 0.17722
w 224 -223 205 0.0565674
w 224 -223 -205 0.276867
w 225 224 206 0
w 225 224 -206 1
w 225 -224 206 0
w 225 -224 -206 1
w 226 225 207 0.565591
w 226 225 -207 0.435372
w 226 -225 207 0.896682
w 226 -225 -207 0.125344
w 227 226 208 0.344222
w 227 226 -208 0.178043
w 227 -226 208 0.844726
w 227 -226 -208 0.384055
w 228 227 209 1
w 228 227 -209 0
w 228 -227 209 1
w 228 -227 -209 1
w 229 210 0.386463
w 229 -210 0.571166
w 230 229 211 0.0858256
w 230 229 -211 0.507893
w 230 -229 211 0.437697
w 230 -229 -211 0.25843
w 231 230 212 0.494264
w 231 230 -212 0.535297
w 231 -230 212 0.98274
w 231 -230 -212 0.261457
w 232 231 213 0.846016
w 232 231 -213 0.518516
w 232 -231 213 0.493937
w 232 -231 -213 0.411607
w 233 232 214 0.390619
w 233 232 -214 0.536951
w 233 -232 214 0.592703
w 233 -232 -214 0.734841
w 234 233 215 0.437429
w 234 233 -215 0.118896
w 234 -233 215 0.0704429
w 234 -233 -215 0.426237
w 235 234 216 0.754288
w 235 234 -216 0.679103
w 235 -234 216 0.859073
w 235 -234 -216 0.140751
w 236 235 217 0
w 236 235 -217 1
w 236 -235 217 1
w 236 -235 -217 0
w 237 236 218 1
w 237 236 -218 1
w 237 -236 218 0
w 237 -236 -218 1
w 238 237 219 0.681597
w 238 237 -219 0.272032
w 238 -237 219 0.212398
w 238 -237 -219 0.175534
w 239 238 220 0.166286
w 239 238 -220 0.566153
w 239 -238 220 0.22059
w 239 -238 -220 0.758989
w 240 239 221 1
w 240 239 -221 0
w 240 -239 221 1
w 240 -239 -221 0
w 241 240 222 0.312134
w 241 240 -222 0.760315
w 241 -240 222 0.301758
w 241 -240 -222 0.171207
w 242 241 223 0.552028
w 242 241 -223 0.671671
w 242 -241 223 0.127642
w 242 -241 -223 0.31019
w 243 242 224 0.612648
w 243 242 -224 0.753466
w 243 -242 224 0.0422569
w 243 -242 -224 0.63295
w 244 243 225 1
w 244 243 -225 1
w 244 -243 225 0
w 244 -243 -225 1
w 245 244 226 1
w 245 244 -226 0
w 245 -244 226 1
w 245 -244 -226 0
w 246 245 227 1
w 246 245 -227 1
w 246 -245 227 0
w 246 -245 -227 1
w 247 246 228 0.0892501
w 247 246 -228 0.0576677
w 247 -246 228 0.994644
w 247 -246 -228 0.260457
w 248 229 0.546672
w 248 -229 0.932128
w 249 248 230 1
w 249 248 -230 1
w 249 -248 230 1
w 249 -248 -230 0
w 250 249 231 0.331973
w 250 249 -231 0.78981
w 250 -249 231 0.320356
w 250 -249 -231 0.64652
w 251 250 232 1
w 251 250 -232 0
w 251 -250 232 0
w 251 -250 -232 0
w 252 251 233 1
w 252 251 -233 1
w 252 -251 233 1
w 252 -251 -233 0
w 253 252 234 1
w 253 252 -234 1
w 253 -252 234 0
w 253 -252 -234 1
w 254 253 235 1
w 254 253 -235 0
w 254 -253 235 1
w 254 -253 -235 1
w 255 254 236 0.423673
w 255 254 -236 0.418825
w 255 -254 236 0.150973
w 255 -254 -236 0.122695
w 256 255 237 0
w 256 255 -237 0
w 256 -255 237 0
w 256 -255 -237 1
w 257 256 238 1
w 257 256 -238 0
w 257 -256 238 0
w 257 -256 -238 1
w 258 257 239 0.430623
w 258 257 -239 0.168982
w 258 -257 239 0.965686
w 258 -257 -239 0.980684
w 259 258 240 0
w 259 258 -240 0
w 259 -258 240 0
w 259 -258 -240 1
w 260 259 241 0.329381
w 260 259 -241 0.401173
w 260 -259 241 0.229285
w 260 -259 -241 0.891343
w 261 260 242 1
w 261 260 -242 1
w 261 -260 242 1
w 261 -260 -242 0
w 262 261 243 0
w 262 261 -243 0
w 262 -261 243 0
w 262 -261 -243 1
w 263 262 244 1
w 263 262 -244 1
w 263 -262 244 1
w 263 -262 -244 0
w 264 263 245 0.99992
w 264 263 -245 0.824319
w 264 -263 245 0.950177
w 264 -263 -245 0.980604
w 265 264 246 0
w 265 264 -246 1
w 265 -264 246 0
w 265 -264 -246 0
w 266 265 247 1
w 266 265 -247 1
w 266 -265 247 0
w 266 -265 -247 0
w 267 248 0
w 267 -248 1
w 268 267 249 0
w 268 267 -249 0
w 268 -267 249 1
w 268 -267 -249 0
w 269 268 250 1
w 269 268 -250 0
w 269 -268 250 1
w 269 -268 -250 1
w 270 269 251 1
w 270 269 -251 1
w 270 -269 251 0
w 270 -269 -251 0
w 271 270 252 0.191804
w 271 270 -252 0.301285
w 271 -270 252 0.88814
w 271 -270 -252 0.480269
w 272 271 253 0.445854
w 272 271 -253 0.493022
w 272 -271 253 0.253809
w 272 -271 -253 0.332949
w 273 272 254 0.90535
w 273 272 -254 0.111387
w 273 -272 254 0.331061
w 273 -272 -254 0.209848
w 274 273 255 1
w 274 273 -255 1
w 274 -273 255 0
w 274 -273 -255 0
w 275 274 256 0.214132
w 275 274 -256 0.831467
w 275 -274 256 0.242456
w 275 -274 -256 0.0189159
w 276 275 257 0.453736
w 276 275 -257 0.479037
w 276 -275 257 0.235656
w 276 -275 -257 0.664936
w 277 276 258 0.880174
w 277 276 -258 0.85674
w 277 -276 258 0.0647618
w 277 -276 -258 0.768313
w 278 277 259 0
w 278 277 -259 1
w 278 -277 259 0
w 278 -277 -259 0
w 279 278 260 0.736979
w 279 278 -260 0.0554738
w 279 -278 260 0.658504
w 279 -278 -260 0.0680393
w 280 279 261 1
w 280 279 -261 0
w 280 -279 261 0
w 280 -279 -261 0
w 281 280 262 0
w 281 280 -262 0
w 281 -280 262 0
w 281 -280 -262 1
w 282 281 263 0.851987
w 282 281 -263 0.198501
w 282 -281 263 0.990763
w 282 -281 -263 0.516923
w 283 282 264 0.870937
w 283 282 -264 0.373663
w 283 -282 264 0.0267395
w 283 -282 -264 0.63925
w 284 283 265 0.923055
w 284 283 -265 0.853418
w 284 -283 265 0.540703
w 284 -283 -265 0.0731786
w 285 284 266 1
w 285 284 -266 0
w 285 -284 266 1
w 285 -284 -266 0
w 286 267 1
w 286 -267 0
w 287 286 268 0
w 287 286 -268 1
w 287 -286 268 1
w 287 -286 -268 1
w 288 287 269 1
w 288 287 -269 1
w 288 -287 269 1
w 288 -287 -269 0
w 289 288 270 0
w 289 288 -270 1
w 289 -288 270 0
w 289 -288 -270 0
w 290 289 271 1
w 290 289 -271 1
w 290 -289 271 0
w 290 -289 -271 0
w 291 290 272 1
w 291 290 -272 1
w 291 -290 272 0
w 291 -290 -272 0
w 292 291 273 1
w 292 291 -273 0
w 292 -291 273 0
w 292 -291 -273 0
w 293 292 274 0
w 293 292 -274 0
w 293 -292 274 0
w 293 -292 -274 1
w 294 293 275 0.089406
w 294 293 -275 0.0877749
w 294 -293 275 0.745203
w 294 -293 -275 0.770719
w 295 294 276 1
w 295 294 -276 0
w 295 -294 276 1
w 295 -294 -276 1
w 296 295 277 0.561276
w 296 295 -277 0.763292
w 296 -295 277 0.168074
w 296 -295 -277 0.517864
w 297 296 278 0.203755
w 297 296 -278 0.015155
w 297 -296 278 0.704944
w 297 -296 -278 0.639972
w 298 297 279 0.841011
w 298 297 -279 0.135226
w 298 -297 279 0.91082
w 298 -297 -279 0.371053
w 299 298 280 0.361604
w 299 298 -280 0.850392
w 299 -298 280 0.364755
w 299 -298 -280 0.524804
w 300 299 281 1
w 300 299 -281 1
w 300 -299 281 0
w 300 -299 -281 0
w 301 300 282 0
w 301 300 -282 1
w 301 -300 282 0
w 301 -300 -282 1
w 302 301 283 0.813535
w 302 301 -283 0.842338
w 302 -301 283 0.314267
w 302 -301 -283 0.981608
w 303 302 284 0
w 303 302 -284 0
w 303 -302 284 1
w 303 -302 -284 0
w 304 303 285 0.165485
w 304 303 -285 0.557751
w 304 -303 285 0.960561
w 304 -303 -285 0.0763045
w 305 286 0.508576
w 305 -286 0.437909
w 306 305 287 0.873331
w 306 305 -287 0.962713
w 306 -305 287 0.214019
w 306 -305 -287 0.159325
w 307 306 288 0.736617
w 307 306 -288 0.190523
w 307 -306 288 0.961852
w 307 -306 -288 0.70232
w 308 307 289 0.789578
w 308 307 -289 0.983383
w 308 -307 289 0.540363
w 308 -307 -289 0.603112
w 309 308 290 0.854631
w 309 308 -290 0.584721
w 309 -308 290 0.185924
w 309 -308 -290 0.866427
w 310 309 291 0.561281
w 310 309 -291 0.583166
w 310 -309 291 0.59542
w 310 -309 -291 0.726766
w 311 310 292 0
w 311 310 -292 0
w 311 -310 292 1
w 311 -310 -292 1
w 312 311 293 0
w 312 311 -293 1
w 312 -311 293 1
w 312 -311 -293 0
w 313 312 294 1
w 313 312 -294 1
w 313 -312 294 0
w 313 -312 -294 1
w 314 313 295 1
w 314 313 -295 0
w 314 -313 295 0
w 314 -313 -295 1
w 315 314 296 0
w 315 314 -296 1
w 315 -314 296 0
w 315 -314 -296 1
w 316 315 297 1
w 316 315 -297 1
w 316 -315 297 0
w 316 -315 -297 0
w 317 316 298 0
w 317 316 -298 0
w 317 -316 298 0
w 317 -316 -298 1
w 318 317 299 0.181263
w 318 317 -299 0.643809
w 318 -317 299 0.032687
w 318 -317 -299 0.244198
w 319 318 300 0.813302
w 319 318 -300 0.043749
w 319 -318 300 0.0287592
w 319 -318 -300 0.55577
w 320 319 301 0.305884
w 320 319 -301 0.0878148
w 320 -319 301 0.0308753
w 320 -319 -301 0.123372
w 321 320 302 1
w 321 320 -302 0
w 321 -320 302 0
w 321 -320 -302 1
w 322 321 303 0
w 322 321 -303 0
w 322 -321 303 1
w 322 -321 -303 0
w 323 322 304 0.718374
w 323 322 -304 0.159559
w 323 -322 304 0.269894
w 323 -322 -304 0.050722
w 324 305 0.0988891
w 324 -305 0.231985
w 325 324 306 0.131576
w 325 324 -306 0.476183
w 325 -324 306 0.250312
w 325 -324 -306 0.944878
w 326 325 307 0.279071
w 326 325 -307 0.500648
w 326 -325 307 0.0655527
w 326 -325 -307 0.584955
w 327 326 308 0.096428
w 327 326 -308 0.708327
w 327 -326 308 0.811435
w 327 -326 -308 0.438279
w 328 327 309 0.754286
w 328 327 -309 0.27703
w 328 -327 309 0.837852
w 328 -327 -309 0.187099
w 329 328 310 1
w 329 328 -310 0
w 329 -328 310 1
w 329 -328 -310 0
w 330 329 311 0.125734
w 330 329 -311 0.062695
w 330 -329 311 0.730333
w 330 -329 -311 0.224623
w 331 330 312 0
w 331 330 -312 1
w 331 -330 312 1
w 331 -330 -312 1
w 332 331 313 1
w 332 331 -313 0
w 332 -331 313 0
w 332 -331 -313 0
w 333 332 314 0
w 333 332 -314 1
w 333 -332 314 1
w 333 -332 -314 1
w 334 333 315 0.566104
w 334 333 -315 0.955909
w 334 -333 315 0.168086
w 334 -333 -315 0.403956
w 335 334 316 1
w 335 334 -316 0
w 335 -334 316 1
w 335 -334 -316 0
w 336 335 317 0.713154
w 336 335 -317 0.323621
w 336 -335 317 0.772223
w 336 -335 -317 0.443487
w 337 336 318 0.0669035
w 337 336 -318 0.68311
w 337 -336 318 0.904442
w 337 -336 -318 0.837767
w 338 337 319 0
w 338 337 -319 1
w 338 -337 319 0
w 338 -337 -319 0
w 339 338 320 0
w 339 338 -320 0
w 339 -338 320 0
w 339 -338 -320 1
w 340 339 321 0.828742
w 340 339 -321 0.924403
w 340 -339 321 0.554964
w 340 -339 -321 0.996828
w 341 340 322 0
w 341 340 -322 1
w 341 -340 322 1
w 341 -340 -322 1
w 342 341 323 0.735443
w 342 341 -323 0.259427
w 342 -341 323 0.860384
w 342 -341 -323 0.507666
w 343 324 0.408627
w 343 -324 0.574569
w 344 343 325 1
w 344 343 -325 1
w 344 -343 325 0
w 344 -343 -325 1
w 345 344 326 0.501119
w 345 344 -326 0.525834
w 345 -344 326 0.0258094
w 345 -344 -326 0.79713
w 346 345 327 0.963496
w 346 345 -327 0.155429
w 346 -345 327 0.522322
w 346 -345 -327 0.792238
w 347 346 328 0
w 347 346 -328 0
w 347 -346 328 1
w 347 -346 -328 0
w 348 347 329 0
w 348 347 -329 0
w 348 -347 329 1
w 348 -347 -329 1
w 349 348 330 0.525089
w 349 348 -330 0.677215
w 349 -348 330 0.283871
w 349 -348 -330 0.933716
w 350 349 331 0
w 350 349 -331 0
w 350 -349 331 1
w 350 -349 -331 0
w 351 350 332 0.205019
w 351 350 -332 0.730083
w 351 -350 332 0.291209
w 351 -350 -332 0.230829
w 352 351 333 0.214475
w 352 351 -333 0.194325
w 352 -351 333 0.682643
w 352 -351 -333 0.736797
w 353 352 334 0.762475
w 353 352 -334 0.814083
w 353 -352 334 0.77563
w 353 -352 -334 0.170667
w 354 353 335 0.903572
w 354 353 -335 0.604773
w 354 -353 335 0.910871
w 354 -353 -335 0.568277
w 355 354 336 0.491829
w 355 354 -336 0.0933654
w 355 -354 336 0.451536
w 355 -354 -336 0.7757
w 356 355 337 0
w 356 355 -337 1
w 356 -355 337 0
w 356 -355 -337 1
w 357 356 338 0.0392417
w 357 356 -338 0.57246
w 357 -356 338 0.404643
w 357 -356 -338 0.33045
w 358 357 339 0.931857
w 358 357 -339 0.544925
w 358 -357 339 0.997613
w 358 -357 -339 0.6145
w 359 358 340 0
w 359 358 -340 1
w 359 -358 340 1
w 359 -358 -340 0
w 360 359 341 0.685147
w 360 359 -341 0.663378
w 360 -359 341 0.152415
w 360 -359 -341 0.596018
w 361 360 342 1
w 361 360 -342 0
w 361 -360 342 1
w 361 -360 -342 1